(set-logic QF_AUFBV)
(declare-fun v1 () (_ BitVec 1))
(declare-fun bvlambda_1_ () (_ BitVec 1))
(declare-fun bvlambda_2_ () (_ BitVec 10))
(declare-fun bvlambda_3_ () (_ BitVec 1))
(declare-fun bvlambda_4_ () (_ BitVec 4))
(declare-fun bvlambda_5_ () (_ BitVec 1))
(declare-fun bvlambda_6_ () (_ BitVec 1))
(declare-fun bvlambda_7_ () (_ BitVec 5))
(declare-fun bvlambda_8_ () (_ BitVec 10))
(declare-fun bvlambda_9_ () (_ BitVec 1))
(declare-fun bvlambda_10_ () (_ BitVec 4))
(declare-fun bvlambda_11_ () (_ BitVec 1))
(declare-fun bvlambda_12_ () (_ BitVec 1))
(declare-fun bvlambda_13_ () (_ BitVec 1))
(declare-fun bvlambda_14_ () (_ BitVec 1))
(declare-fun bvlambda_15_ () (_ BitVec 4))
(declare-fun bvlambda_16_ () (_ BitVec 1))
(declare-fun bvlambda_17_ () (_ BitVec 4))
(declare-fun bvlambda_18_ () (_ BitVec 1))
(declare-fun bvlambda_19_ () (_ BitVec 8))
(declare-fun bvlambda_20_ () (_ BitVec 1))
(declare-fun bvlambda_21_ () (_ BitVec 1))
(declare-fun bvlambda_22_ () (_ BitVec 5))
(declare-fun bvlambda_23_ () (_ BitVec 1))
(declare-fun bvlambda_24_ () (_ BitVec 1))
(declare-fun a88 () (Array (_ BitVec 1) (_ BitVec 12)))
(assert
(let (($e1 (_ bv0 1)))
(let (($e2 (_ bv1208 13)))
(let (($e3 (_ bv1474 14)))
(let (($e4 (_ bv4 3)))
(let (($e5 (_ bv866 10)))
(let (($e6 (_ bv250 10)))
(let (($e7 (_ bv4 4)))
(let (($e8 (_ bv25658 16)))
(let (($e9 (_ bv52 6)))
(let (($e10 (_ bv252 11)))
(let (($e11 (_ bv424 10)))
(let (($e12 (_ bv0 12)))
(let (($e13 (_ bv0 11)))
(let (($e14 (_ bv65524 16)))
(let (($e15 (_ bv0 5)))
(let (($e16 (_ bv54 6)))
(let (($e17 (_ bv0 3)))
(let (($e18 (_ bv0 7)))
(let (($e19 (_ bv30 5)))
(let (($e20 (_ bv16 11)))
(let (($e21 (_ bv0 10)))
(let (($e22 (_ bv252 12)))
(let (($e23 (_ bv0 16)))
(let (($e24 (_ bv64826 16)))
(let (($e25 (_ bv0 14)))
(let (($e26 (_ bv0 15)))
(let (($e27 (_ bv44 12)))
(let (($e28 (_ bv10 4)))
(let (($e29 (_ bv64762 16)))
(let (($e30 (_ bv0 2)))
(let (($e31 (_ bv0 4)))
(let (($e32 (_ bv0 13)))
(let (($e33 (_ bv56 15)))
(let (($e34 (_ bv16 12)))
(let (($e35 (_ bv0 6)))
(let (($e36 (_ bv4084 12)))
(let (($e37 (_ bv52 12)))
(let (($e38 (_ bv252 16)))
(let (($e39 (_ bv0 8)))
(let (($e40 (_ bv3938 16)))
(let (($e41 (_ bv4094 12)))
(let (($e42 (_ bv0 9)))
(let (($e43 (_ bv56 6)))
(let (($e44 (_ bv1338 11)))
(let (($e45 (_ bv31994 15)))
(let (($e46 (_ bv25658 15)))
(let (($e47 (_ bv6 3)))
(let (($e48 (_ bv4 11)))
(let (($e49 (_ bv32756 15)))
(let (($e50 (_ bv4 6)))
(let (($e51 (_ bv20 5)))
(let (($e52 (_ bv3322 16)))
(let (($e53 (_ bv62 6)))
(let (($e54 (_ bv30972 15)))
(let (($e55 (_ bv1924 11)))
(let (($e56 (_ bv8190 13)))
(let (($e57 (_ bv1872 11)))
(let (($e58 (_ bv54 12)))
(let (($e59 (_ bv364 16)))
(let (($e60 (_ bv65518 16)))
(let (($e61 (_ bv18 10)))
(let (($e62 (_ bv8 4)))
(let (($e89 (concat $e18 bvlambda_20_)))
(let (($e90 (concat $e89 bvlambda_21_)))
(let (($e91 (concat $e90 bvlambda_22_)))
(let (($e92 (concat (bvnot $e18) bvlambda_20_)))
(let (($e93 (concat $e92 bvlambda_21_)))
(let (($e94 (concat $e93 bvlambda_22_)))
(let (($e95 (ite (= #b1 bvlambda_20_) $e94 $e91)))
(let (($e96 (bvand $e3 $e95)))
(let (($e97 (bvand (bvnot $e3) (bvnot $e95))))
(let (($e98 (bvand (bvnot $e97) (bvnot $e96))))
(let (($e99 ((_ extract 9 9) $e98)))
(let (($e100 (concat $e15 bvlambda_20_)))
(let (($e101 (concat $e100 bvlambda_21_)))
(let (($e102 (concat $e101 bvlambda_22_)))
(let (($e103 (concat (bvnot $e15) bvlambda_20_)))
(let (($e104 (concat $e103 bvlambda_21_)))
(let (($e105 (concat $e104 bvlambda_22_)))
(let (($e106 (ite (= #b1 bvlambda_20_) $e105 $e102)))
(let (($e107 ((_ extract 13 13) $e98)))
(let (($e108 (store a88 $e107 $e106)))
(let (($e109 (select $e108 $e99)))
(let (($e110 (concat $e30 $e109)))
(let (($e111 (concat (bvnot $e30) $e109)))
(let (($e112 ((_ extract 11 11) $e109)))
(let (($e113 (ite (= #b1 $e112) $e111 $e110)))
(let (($e114 (ite (bvult $e113 $e98) #b1 #b0)))
(let (($e115 (store $e108 (bvnot $e1) (bvnot $e22))))
(let (($e116 (select $e115 bvlambda_11_)))
(let (($e117 ((_ extract 6 6) $e116)))
(let (($e118 (select $e108 bvlambda_12_)))
(let (($e119 ((_ extract 11 11) $e118)))
(let (($e120 (concat $e13 v1)))
(let (($e121 (concat (bvnot $e13) v1)))
(let (($e122 (ite (= #b1 v1) $e121 $e120)))
(let (($e123 ((_ extract 11 11) $e122)))
(let (($e124 (ite (= $e123 $e119) #b1 #b0)))
(let (($e125 ((_ extract 10 0) $e118)))
(let (($e126 ((_ extract 10 0) $e122)))
(let (($e127 (ite (bvult $e126 $e125) #b1 #b0)))
(let (($e128 (bvand $e127 $e124)))
(let (($e129 (bvand $e123 (bvnot $e119))))
(let (($e130 (bvand (bvnot $e129) (bvnot $e128))))
(let (($e131 (concat $e26 $e130)))
(let (($e132 (concat (bvnot $e26) $e130)))
(let (($e133 (ite (= #b1 $e130) $e132 $e131)))
(let (($e134 (concat bvlambda_1_ bvlambda_2_)))
(let (($e135 (concat $e134 bvlambda_3_)))
(let (($e136 (concat $e135 bvlambda_4_)))
(let (($e137 (bvand $e14 $e136)))
(let (($e138 (ite (bvult $e137 $e133) #b1 #b0)))
(let (($e139 (ite (= $e138 $e117) #b1 #b0)))
(let (($e140 ((_ extract 10 7) $e116)))
(let (($e141 (ite (= $e31 $e140) #b1 #b0)))
(let (($e142 (bvand $e141 $e139)))
(let (($e143 (bvand (bvnot $e142) $e114)))
(let (($e144 (select a88 bvlambda_24_)))
(let (($e145 (concat $e15 bvlambda_5_)))
(let (($e146 (concat $e145 bvlambda_6_)))
(let (($e147 (concat $e146 bvlambda_7_)))
(let (($e148 (ite (bvult $e147 $e144) #b1 #b0)))
(let (($e149 (concat (bvnot $e42) (bvnot $e148))))
(let (($e150 (concat $e42 (bvnot $e148))))
(let (($e151 (ite (= #b1 $e148) $e150 $e149)))
(let (($e152 (ite (= $e5 $e151) #b1 #b0)))
(let (($e153 (ite (= $e152 (bvnot $e143)) #b1 #b0)))
(let (($e154 ((_ extract 10 6) $e116)))
(let (($e155 (concat $e13 $e154)))
(let (($e156 (concat (bvnot $e13) $e154)))
(let (($e157 ((_ extract 10 10) $e116)))
(let (($e158 (ite (= #b1 $e157) $e156 $e155)))
(let (($e159 (ite (bvult $e136 $e158) #b1 #b0)))
(let (($e160 (concat $e15 $e138)))
(let (($e161 (ite (bvult $e9 $e160) #b1 #b0)))
(let (($e162 (bvand $e161 (bvnot $e159))))
(let (($e163 (select a88 (bvnot $e1))))
(let (($e164 ((_ extract 10 0) $e163)))
(let (($e165 (ite (bvult $e164 $e20) #b1 #b0)))
(let (($e166 ((_ extract 11 11) $e163)))
(let (($e167 (bvand (bvnot $e166) (bvnot $e165))))
(let (($e168 (bvand $e167 $e162)))
(let (($e169 (bvand (bvnot $e168) $e153)))
(let (($e170 (concat $e12 v1)))
(let (($e171 (concat (bvnot $e12) v1)))
(let (($e172 (ite (= #b1 v1) $e171 $e170)))
(let (($e173 (bvand (bvnot $e2) $e172)))
(let (($e174 (bvand $e2 (bvnot $e172))))
(let (($e175 (bvand (bvnot $e174) (bvnot $e173))))
(let (($e176 ((_ extract 11 0) $e175)))
(let (($e177 (ite (bvult (bvnot $e176) $e120) #b1 #b0)))
(let (($e178 ((_ extract 12 12) $e175)))
(let (($e179 (bvand $e178 (bvnot $e177))))
(let (($e180 (concat $e26 $e179)))
(let (($e181 (concat (bvnot $e26) $e179)))
(let (($e182 (ite (= #b1 $e179) $e181 $e180)))
(let (($e183 ((_ extract 15 15) $e182)))
(let (($e184 (ite (= $e183 bvlambda_1_) #b1 #b0)))
(let (($e185 ((_ extract 14 0) $e182)))
(let (($e186 (concat bvlambda_2_ bvlambda_3_)))
(let (($e187 (concat $e186 bvlambda_4_)))
(let (($e188 (bvand $e49 $e187)))
(let (($e189 (ite (bvult $e188 $e185) #b1 #b0)))
(let (($e190 (bvand $e189 $e184)))
(let (($e191 (bvand (bvnot $e183) bvlambda_1_)))
(let (($e192 (bvand (bvnot $e191) (bvnot $e190))))
(let (($e193 (concat $e21 v1)))
(let (($e194 (select $e108 (bvnot $e1))))
(let (($e195 ((_ extract 10 0) $e194)))
(let (($e196 (ite (bvult $e195 $e193) #b1 #b0)))
(let (($e197 ((_ extract 11 11) $e194)))
(let (($e198 (bvand (bvnot $e197) (bvnot $e196))))
(let (($e199 (bvand (bvnot $e198) (bvnot $e192))))
(let (($e200 (concat $e21 bvlambda_23_)))
(let (($e201 (concat $e200 bvlambda_24_)))
(let (($e202 (concat $e15 bvlambda_23_)))
(let (($e203 (concat $e202 bvlambda_24_)))
(let (($e204 (concat (bvnot $e15) bvlambda_23_)))
(let (($e205 (concat $e204 bvlambda_24_)))
(let (($e206 (ite (= #b1 bvlambda_23_) $e205 $e203)))
(let (($e207 ((_ extract 5 0) $e206)))
(let (($e208 (ite (bvult $e207 (bvnot $e16)) #b1 #b0)))
(let (($e209 ((_ extract 6 6) $e206)))
(let (($e210 (bvand $e209 $e208)))
(let (($e211 (store a88 $e1 (bvnot $e12))))
(let (($e212 (select $e211 (bvnot $e210))))
(let (($e213 (ite (bvult $e212 $e201) #b1 #b0)))
(let (($e214 (bvand (bvnot $e213) $e199)))
(let (($e215 ((_ extract 1 1) $e98)))
(let (($e216 (select a88 $e215)))
(let (($e217 (select a88 $e1)))
(let (($e218 (bvand $e217 $e216)))
(let (($e219 ((_ extract 10 0) $e218)))
(let (($e220 (ite (bvult (bvnot $e57) $e219) #b1 #b0)))
(let (($e221 ((_ extract 11 11) $e218)))
(let (($e222 (bvand (bvnot $e221) $e220)))
(let (($e223 (concat $e17 bvlambda_11_)))
(let (($e224 (concat $e223 bvlambda_12_)))
(let (($e225 (concat $e224 bvlambda_13_)))
(let (($e226 (concat (bvnot $e17) bvlambda_11_)))
(let (($e227 (concat $e226 bvlambda_12_)))
(let (($e228 (concat $e227 bvlambda_13_)))
(let (($e229 (ite (= #b1 bvlambda_11_) $e228 $e225)))
(let (($e230 (bvand $e9 $e229)))
(let (($e231 (ite (bvult $e230 $e53) #b1 #b0)))
(let (($e232 (bvand (bvnot $e231) (bvnot $e222))))
(let (($e233 (concat $e13 bvlambda_16_)))
(let (($e234 (concat $e233 bvlambda_17_)))
(let (($e235 (concat (bvnot $e13) bvlambda_16_)))
(let (($e236 (concat $e235 bvlambda_17_)))
(let (($e237 (ite (= #b1 bvlambda_16_) $e236 $e234)))
(let (($e238 ((_ extract 3 0) $e237)))
(let (($e239 (ite (= bvlambda_4_ $e238) #b1 #b0)))
(let (($e240 ((_ extract 4 4) $e237)))
(let (($e241 (ite (= bvlambda_3_ $e240) #b1 #b0)))
(let (($e242 ((_ extract 14 5) $e237)))
(let (($e243 (ite (= bvlambda_2_ $e242) #b1 #b0)))
(let (($e244 ((_ extract 15 15) $e237)))
(let (($e245 (ite (= bvlambda_1_ $e244) #b1 #b0)))
(let (($e246 (bvand $e245 $e243)))
(let (($e247 (bvand $e246 $e241)))
(let (($e248 (bvand $e247 $e239)))
(let (($e249 (concat $e31 (bvnot $e248))))
(let (($e250 (ite (bvult $e249 $e154) #b1 #b0)))
(let (($e251 (ite (bvult $e163 (bvnot $e58)) #b1 #b0)))
(let (($e252 (bvand $e251 $e250)))
(let (($e253 (bvand $e252 (bvnot $e232))))
(let (($e254 (concat $e15 $e130)))
(let (($e255 (ite (bvult $e43 $e254) #b1 #b0)))
(let (($e256 (bvand $e255 $e253)))
(let (($e257 (bvand $e213 $e256)))
(let (($e258 (bvand (bvnot $e257) (bvnot $e214))))
(let (($e259 (concat $e17 $e118)))
(let (($e260 ((_ extract 4 4) $e212)))
(let (($e261 (ite (= #b1 $e260) (bvnot $e45) (bvnot $e46))))
(let (($e262 (ite (bvult $e261 $e259) #b1 #b0)))
(let (($e263 (bvand $e260 (bvnot $e262))))
(let (($e264 (ite (bvult $e195 (bvnot $e44)) #b1 #b0)))
(let (($e265 (bvand (bvnot $e197) (bvnot $e264))))
(let (($e266 (bvand (bvnot $e265) (bvnot $e263))))
(let (($e267 (bvand $e266 (bvnot $e258))))
(let (($e268 ((_ extract 12 0) $e98)))
(let (($e269 (concat $e1 $e194)))
(let (($e270 (ite (bvult $e269 $e268) #b1 #b0)))
(let (($e271 (bvand (bvnot $e107) $e270)))
(let (($e272 (ite (bvult $e175 $e56) #b1 #b0)))
(let (($e273 (bvand (bvnot $e272) (bvnot $e271))))
(let (($e274 (ite (= $e273 $e267) #b1 #b0)))
(let (($e275 (ite (bvult $e164 (bvnot $e20)) #b1 #b0)))
(let (($e276 (bvand $e166 $e275)))
(let (($e277 (bvand (bvnot $e276) $e274)))
(let (($e278 (ite (= (bvnot $e277) $e169) #b1 #b0)))
(let (($e279 (select $e115 (bvnot $e248))))
(let (($e280 (concat $e31 $e279)))
(let (($e281 (concat (bvnot $e31) $e279)))
(let (($e282 ((_ extract 11 11) $e279)))
(let (($e283 (ite (= #b1 $e282) $e281 $e280)))
(let (($e284 (bvand $e28 (bvnot bvlambda_4_))))
(let (($e285 (concat (bvnot $e26) (bvnot $e210))))
(let (($e286 (concat $e26 (bvnot $e210))))
(let (($e287 (ite (= #b1 $e210) $e286 $e285)))
(let (($e288 (bvshl $e287  ((_ zero_extend 12) $e284))))
(let (($e289 (bvand (bvnot $e27) (bvnot $e135))))
(let (($e290 (ite (= $e12 $e289) #b1 #b0)))
(let (($e291 (ite (= #b1 $e290) $e288 $e23)))
(let (($e292 (ite (= $e291 $e283) #b1 #b0)))
(let (($e293 (concat (bvnot $e31) (bvnot bvlambda_5_))))
(let (($e294 (concat $e293 (bvnot bvlambda_6_))))
(let (($e295 (concat $e294 (bvnot bvlambda_7_))))
(let (($e296 (bvand (bvnot $e48) $e295)))
(let (($e297 (select $e108 bvlambda_6_)))
(let (($e298 ((_ extract 10 0) $e297)))
(let (($e299 (ite (bvult $e298 (bvnot $e296)) #b1 #b0)))
(let (($e300 ((_ extract 11 11) $e297)))
(let (($e301 (bvand (bvnot $e300) (bvnot $e299))))
(let (($e302 (ite (= $e301 $e292) #b1 #b0)))
(let (($e303 (concat $e1 bvlambda_14_)))
(let (($e304 (concat $e303 bvlambda_15_)))
(let (($e305 (ite (bvult $e304 $e9) #b1 #b0)))
(let (($e306 (ite (= $e305 $e302) #b1 #b0)))
(let (($e307 (ite (bvult $e109 $e297) #b1 #b0)))
(let (($e308 (concat $e17 bvlambda_18_)))
(let (($e309 (concat $e308 bvlambda_19_)))
(let (($e310 (concat (bvnot $e17) bvlambda_18_)))
(let (($e311 (concat $e310 bvlambda_19_)))
(let (($e312 (ite (= #b1 bvlambda_18_) $e311 $e309)))
(let (($e313 (bvand $e22 (bvnot $e312))))
(let (($e314 (ite (bvult $e218 (bvnot $e313)) #b1 #b0)))
(let (($e315 (bvand (bvnot $e314) $e307)))
(let (($e316 (concat $e39 bvlambda_14_)))
(let (($e317 (concat $e316 bvlambda_15_)))
(let (($e318 (concat (bvnot $e39) bvlambda_14_)))
(let (($e319 (concat $e318 bvlambda_15_)))
(let (($e320 (ite (= #b1 bvlambda_14_) $e319 $e317)))
(let (($e321 (ite (bvult (bvnot $e175) $e320) #b1 #b0)))
(let (($e322 (ite (= $e15 bvlambda_22_) #b1 #b0)))
(let (($e323 (bvand (bvnot bvlambda_20_) (bvnot bvlambda_21_))))
(let (($e324 (bvand $e323 $e322)))
(let (($e325 (bvand (bvnot $e324) $e321)))
(let (($e326 (bvand $e314 $e325)))
(let (($e327 (bvand (bvnot $e326) (bvnot $e315))))
(let (($e328 (concat $e31 bvlambda_20_)))
(let (($e329 (concat $e328 bvlambda_21_)))
(let (($e330 (concat $e329 bvlambda_22_)))
(let (($e331 (ite (bvult $e298 $e330) #b1 #b0)))
(let (($e332 (bvand (bvnot $e300) (bvnot $e331))))
(let (($e333 (bvand (bvnot $e332) (bvnot $e327))))
(let (($e334 (ite (= (bvnot $e176) $e116) #b1 #b0)))
(let (($e335 ((_ extract 11 11) $e116)))
(let (($e336 (ite (= (bvnot $e178) $e335) #b1 #b0)))
(let (($e337 (bvand $e336 $e334)))
(let (($e338 (concat (bvnot $e39) (bvnot $e148))))
(let (($e339 (concat $e39 (bvnot $e148))))
(let (($e340 (ite (= #b1 $e148) $e339 $e338)))
(let (($e341 ((_ extract 7 0) $e340)))
(let (($e342 (ite (= bvlambda_19_ $e341) #b1 #b0)))
(let (($e343 ((_ extract 8 8) $e340)))
(let (($e344 (ite (= bvlambda_18_ $e343) #b1 #b0)))
(let (($e345 (bvand $e344 $e342)))
(let (($e346 (bvand (bvnot $e345) (bvnot $e337))))
(let (($e347 (bvand $e345 $e337)))
(let (($e348 (bvand (bvnot $e347) (bvnot $e346))))
(let (($e349 (bvand $e348 $e333)))
(let (($e350 (bvand $e349 $e306)))
(let (($e351 (ite (bvult $e137 $e59) #b1 #b0)))
(let (($e352 (concat bvlambda_16_ bvlambda_17_)))
(let (($e353 (ite (bvult (bvnot $e19) $e352) #b1 #b0)))
(let (($e354 (concat $e26 (bvnot $e353))))
(let (($e355 (bvand $e24 (bvnot $e136))))
(let (($e356 (bvmul $e355 $e354)))
(let (($e357 ((_ extract 4 0) $e356)))
(let (($e358 (ite (= bvlambda_7_ $e357) #b1 #b0)))
(let (($e359 ((_ extract 5 5) $e356)))
(let (($e360 (ite (= bvlambda_6_ $e359) #b1 #b0)))
(let (($e361 ((_ extract 6 6) $e356)))
(let (($e362 (ite (= bvlambda_5_ $e361) #b1 #b0)))
(let (($e363 (bvand $e362 $e360)))
(let (($e364 (bvand $e363 $e358)))
(let (($e365 ((_ extract 15 7) $e356)))
(let (($e366 (ite (= $e42 $e365) #b1 #b0)))
(let (($e367 (bvand $e366 $e364)))
(let (($e368 (bvand $e367 $e351)))
(let (($e369 (concat bvlambda_11_ bvlambda_12_)))
(let (($e370 (concat $e369 bvlambda_13_)))
(let (($e371 (concat $e30 $e138)))
(let (($e372 (concat (bvnot $e30) $e138)))
(let (($e373 (ite (= #b1 $e138) $e372 $e371)))
(let (($e374 (ite (bvult $e373 $e370) #b1 #b0)))
(let (($e375 (ite (= $e374 $e368) #b1 #b0)))
(let (($e376 (bvand bvlambda_1_ $e260)))
(let (($e377 (bvand (bvnot bvlambda_1_) (bvnot $e260))))
(let (($e378 (bvand (bvnot $e377) (bvnot $e376))))
(let (($e379 (ite (bvult $e261 $e188) #b1 #b0)))
(let (($e380 (bvand $e379 $e378)))
(let (($e381 (bvand (bvnot $e377) (bvnot $e380))))
(let (($e382 (bvand (bvnot $e381) (bvnot $e375))))
(let (($e383 (bvand (bvnot $e382) (bvnot $e350))))
(let (($e384 (ite (bvult (bvnot $e41) $e144) #b1 #b0)))
(let (($e385 (ite (= $e31 bvlambda_4_) #b1 #b0)))
(let (($e386 (ite (= $e21 bvlambda_2_) #b1 #b0)))
(let (($e387 (bvand (bvnot bvlambda_1_) $e386)))
(let (($e388 (bvand bvlambda_3_ $e387)))
(let (($e389 (bvand $e388 $e385)))
(let (($e390 (bvand $e389 $e384)))
(let (($e391 (concat bvlambda_8_ bvlambda_9_)))
(let (($e392 (concat $e391 bvlambda_10_)))
(let (($e393 (concat $e35 $e229)))
(let (($e394 (bvand $e37 $e393)))
(let (($e395 (concat (bvnot $e35) $e229)))
(let (($e396 (bvand $e36 $e395)))
(let (($e397 ((_ extract 5 5) $e229)))
(let (($e398 (ite (= #b1 $e397) (bvnot $e396) (bvnot $e394))))
(let (($e399 ((_ extract 11 11) $e398)))
(let (($e400 ((_ extract 11 11) $e216)))
(let (($e401 (ite (= $e400 $e399) #b1 #b0)))
(let (($e402 ((_ extract 10 0) $e398)))
(let (($e403 ((_ extract 10 0) $e216)))
(let (($e404 (ite (bvult $e403 $e402) #b1 #b0)))
(let (($e405 (bvand $e404 $e401)))
(let (($e406 (bvand $e400 (bvnot $e399))))
(let (($e407 (bvand (bvnot $e406) (bvnot $e405))))
(let (($e408 (concat $e25 $e407)))
(let (($e409 (concat (bvnot $e25) $e407)))
(let (($e410 (ite (= #b1 $e407) $e409 $e408)))
(let (($e411 (ite (bvult $e410 $e392) #b1 #b0)))
(let (($e412 ((_ extract 0 0) $e279)))
(let (($e413 ((_ extract 1 1) $e279)))
(let (($e414 (bvand (bvnot $e413) $e412)))
(let (($e415 ((_ extract 5 2) $e279)))
(let (($e416 (bvand (bvnot $e7) (bvnot $e415))))
(let (($e417 (ite (= $e31 $e416) #b1 #b0)))
(let (($e418 (bvand $e417 $e414)))
(let (($e419 ((_ extract 8 6) $e279)))
(let (($e420 (ite (= $e17 $e419) #b1 #b0)))
(let (($e421 (bvand $e420 $e418)))
(let (($e422 ((_ extract 9 9) $e279)))
(let (($e423 (bvand $e422 $e421)))
(let (($e424 ((_ extract 10 10) $e279)))
(let (($e425 (bvand (bvnot $e424) $e423)))
(let (($e426 (concat $e30 (bvnot $e279))))
(let (($e427 ((_ extract 13 11) $e426)))
(let (($e428 (bvand (bvnot $e47) $e427)))
(let (($e429 (ite (= $e17 $e428) #b1 #b0)))
(let (($e430 (bvand $e429 $e425)))
(let (($e431 (bvand $e430 $e411)))
(let (($e432 ((_ extract 14 0) $e356)))
(let (($e433 (ite (bvult $e432 (bvnot $e54)) #b1 #b0)))
(let (($e434 ((_ extract 15 15) $e356)))
(let (($e435 (bvand (bvnot $e434) (bvnot $e433))))
(let (($e436 (ite (bvult $e201 $e194) #b1 #b0)))
(let (($e437 (concat (bvnot $e15) (bvnot $e436))))
(let (($e438 (concat $e15 (bvnot $e436))))
(let (($e439 (ite (= #b1 $e436) $e438 $e437)))
(let (($e440 ((_ extract 4 0) $e439)))
(let (($e441 (ite (bvult $e440 $e51) #b1 #b0)))
(let (($e442 ((_ extract 5 5) $e439)))
(let (($e443 (bvand $e442 $e441)))
(let (($e444 (bvand (bvnot $e443) (bvnot $e435))))
(let (($e445 (bvand (bvnot $e444) (bvnot $e431))))
(let (($e446 (bvand $e444 $e431)))
(let (($e447 (bvand (bvnot $e446) (bvnot $e445))))
(let (($e448 (ite (= $e447 (bvnot $e390)) #b1 #b0)))
(let (($e449 (bvand $e382 (bvnot $e448))))
(let (($e450 (bvand (bvnot $e449) (bvnot $e383))))
(let (($e451 (bvand $e450 (bvnot $e278))))
(let (($e452 (ite (= $e23 $e355) #b1 #b0)))
(let (($e453 (ite (= bvlambda_4_ bvlambda_15_) #b1 #b0)))
(let (($e454 (ite (= bvlambda_3_ bvlambda_14_) #b1 #b0)))
(let (($e455 (bvand $e454 $e453)))
(let (($e456 (bvand $e387 $e455)))
(let (($e457 (concat (bvnot $e17) (bvnot $e456))))
(let (($e458 (concat $e17 (bvnot $e456))))
(let (($e459 (ite (= #b1 $e456) $e458 $e457)))
(let (($e460 ((_ extract 2 0) $e459)))
(let (($e461 (ite (bvult (bvnot $e47) $e460) #b1 #b0)))
(let (($e462 ((_ extract 3 3) $e459)))
(let (($e463 (bvand (bvnot $e462) $e461)))
(let (($e464 (bvand (bvnot $e463) $e452)))
(let (($e465 ((_ extract 1 1) $e216)))
(let (($e466 (ite (= $e335 $e465) #b1 #b0)))
(let (($e467 ((_ extract 10 0) $e116)))
(let (($e468 ((_ extract 11 2) $e216)))
(let (($e469 ((_ extract 0 0) $e216)))
(let (($e470 (concat $e469 $e468)))
(let (($e471 (ite (bvult $e470 $e467) #b1 #b0)))
(let (($e472 (bvand $e471 $e466)))
(let (($e473 (bvand (bvnot $e335) $e465)))
(let (($e474 (bvand (bvnot $e473) (bvnot $e472))))
(let (($e475 (bvand $e474 (bvnot $e464))))
(let (($e476 (ite (= $e13 $e195) #b1 #b0)))
(let (($e477 (bvand (bvnot $e197) (bvnot $e476))))
(let (($e478 (concat $e42 (bvnot $e477))))
(let (($e479 (ite (bvult $e5 $e478) #b1 #b0)))
(let (($e480 (concat $e17 $e479)))
(let (($e481 (concat (bvnot $e17) $e479)))
(let (($e482 (ite (= #b1 $e479) $e481 $e480)))
(let (($e483 (concat (bvnot $e17) (bvnot $e148))))
(let (($e484 (concat $e17 (bvnot $e148))))
(let (($e485 (ite (= #b1 $e148) $e484 $e483)))
(let (($e486 (ite (bvult $e485 $e482) #b1 #b0)))
(let (($e487 (bvand (bvnot $e486) (bvnot $e475))))
(let (($e488 (ite (= #b1 $e260) (bvnot $e29) (bvnot $e8))))
(let (($e489 (concat $e26 (bvnot $e477))))
(let (($e490 (ite (bvult $e489 $e488) #b1 #b0)))
(let (($e491 (concat bvlambda_5_ bvlambda_6_)))
(let (($e492 (concat $e491 bvlambda_7_)))
(let (($e493 (concat bvlambda_21_ bvlambda_22_)))
(let (($e494 (concat $e493 bvlambda_20_)))
(let (($e495 (ite (bvult $e494 $e492) #b1 #b0)))
(let (($e496 (ite (= $e495 $e490) #b1 #b0)))
(let (($e497 (concat $e30 bvlambda_18_)))
(let (($e498 (concat $e497 bvlambda_19_)))
(let (($e499 (ite (bvult $e403 $e498) #b1 #b0)))
(let (($e500 (bvand (bvnot $e400) (bvnot $e499))))
(let (($e501 (bvand $e500 $e496)))
(let (($e502 (bvand (bvnot $e500) (bvnot $e496))))
(let (($e503 (bvand (bvnot $e502) (bvnot $e501))))
(let (($e504 (concat $e18 bvlambda_16_)))
(let (($e505 (concat $e504 bvlambda_17_)))
(let (($e506 ((_ extract 10 10) $e98)))
(let (($e507 (ite (= #b1 $e506) (bvnot $e41) $e505)))
(let (($e508 (ite (bvult $e507 $e144) #b1 #b0)))
(let (($e509 (ite (= (bvnot $e508) $e503) #b1 #b0)))
(let (($e510 (bvand (bvnot $e509) (bvnot $e487))))
(let (($e511 (bvand $e509 $e487)))
(let (($e512 (bvand (bvnot $e511) (bvnot $e510))))
(let (($e513 (ite (bvult $e356 $e60) #b1 #b0)))
(let (($e514 (ite (= (bvnot v1) $e513) #b1 #b0)))
(let (($e515 (bvand (bvnot $e514) $e512)))
(let (($e516 (ite (= $e353 $e305) #b1 #b0)))
(let (($e517 ((_ extract 3 0) $e297)))
(let (($e518 (bvshl $e40  ((_ zero_extend 12) $e517))))
(let (($e519 ((_ extract 11 11) $e518)))
(let (($e520 ((_ extract 11 4) $e297)))
(let (($e521 (ite (= $e39 $e520) #b1 #b0)))
(let (($e522 (bvand $e521 $e519)))
(let (($e523 (ite (= $e119 $e522) #b1 #b0)))
(let (($e524 ((_ extract 10 0) $e518)))
(let (($e525 (ite (= #b1 $e521) $e524 $e13)))
(let (($e526 (ite (bvult $e525 $e125) #b1 #b0)))
(let (($e527 (bvand $e526 $e523)))
(let (($e528 (bvand (bvnot $e119) $e522)))
(let (($e529 (bvand (bvnot $e528) (bvnot $e527))))
(let (($e530 (ite (= $e529 $e516) #b1 #b0)))
(let (($e531 (bvadd (bvnot $e41) (bvnot $e279))))
(let (($e532 (ite (= #b1 $e282) $e531 $e279)))
(let (($e533 (concat $e18 $e154)))
(let (($e534 (bvudiv $e533 $e532)))
(let (($e535 (bvadd (bvnot $e41) (bvnot $e534))))
(let (($e536 (ite (= #b1 $e282) $e535 $e534)))
(let (($e537 (ite (bvult $e536 $e109) #b1 #b0)))
(let (($e538 (bvand $e537 (bvnot $e530))))
(let (($e539 (ite (= (bvnot $e39) bvlambda_19_) #b1 #b0)))
(let (($e540 (bvand bvlambda_18_ (bvnot $e539))))
(let (($e541 (ite (= bvlambda_10_ (bvnot $e62)) #b1 #b0)))
(let (($e542 (ite (= bvlambda_8_ $e61) #b1 #b0)))
(let (($e543 (bvand bvlambda_9_ $e542)))
(let (($e544 (bvand $e543 $e541)))
(let (($e545 (bvand $e544 (bvnot $e540))))
(let (($e546 (concat $e21 bvlambda_14_)))
(let (($e547 (concat $e546 bvlambda_15_)))
(let (($e548 (concat (bvnot $e21) bvlambda_14_)))
(let (($e549 (concat $e548 bvlambda_15_)))
(let (($e550 (ite (= #b1 bvlambda_14_) $e549 $e547)))
(let (($e551 ((_ extract 14 14) $e550)))
(let (($e552 (concat bvlambda_9_ bvlambda_10_)))
(let (($e553 (concat $e552 bvlambda_8_)))
(let (($e554 (concat $e17 $e109)))
(let (($e555 (concat (bvnot $e17) $e109)))
(let (($e556 (ite (= #b1 $e112) $e555 $e554)))
(let (($e557 (bvudiv $e556 $e553)))
(let (($e558 ((_ extract 14 14) $e557)))
(let (($e559 (ite (= $e558 $e551) #b1 #b0)))
(let (($e560 ((_ extract 13 0) $e557)))
(let (($e561 ((_ extract 13 0) $e550)))
(let (($e562 (ite (bvult $e561 $e560) #b1 #b0)))
(let (($e563 (bvand $e562 $e559)))
(let (($e564 (bvand (bvnot $e558) $e551)))
(let (($e565 (bvand (bvnot $e564) (bvnot $e563))))
(let (($e566 (bvand bvlambda_21_ (bvnot $e565))))
(let (($e567 (concat $e32 $e130)))
(let (($e568 (concat $e25 bvlambda_9_)))
(let (($e569 (concat (bvnot $e25) bvlambda_9_)))
(let (($e570 (ite (= #b1 bvlambda_9_) $e569 $e568)))
(let (($e571 ((_ extract 13 0) $e570)))
(let (($e572 (ite (bvult $e571 $e567) #b1 #b0)))
(let (($e573 ((_ extract 14 14) $e570)))
(let (($e574 (bvand (bvnot $e573) (bvnot $e572))))
(let (($e575 (bvand (bvnot $e574) $e566)))
(let (($e576 (concat $e13 (bvnot $e456))))
(let (($e577 (ite (bvult $e536 $e576) #b1 #b0)))
(let (($e578 (bvand $e574 (bvnot $e577))))
(let (($e579 (bvand (bvnot $e578) (bvnot $e575))))
(let (($e580 (ite (= #b1 $e506) (bvnot $e19) $e352)))
(let (($e581 (bvand $e580 $e249)))
(let (($e582 (bvand (bvnot $e580) (bvnot $e249))))
(let (($e583 (bvand (bvnot $e582) (bvnot $e581))))
(let (($e584 ((_ extract 3 0) $e583)))
(let (($e585 (ite (= $e31 $e584) #b1 #b0)))
(let (($e586 ((_ extract 4 4) $e583)))
(let (($e587 (bvand (bvnot $e586) (bvnot $e585))))
(let (($e588 (bvand (bvnot $e587) (bvnot $e579))))
(let (($e589 (ite (bvult $e432 $e33) #b1 #b0)))
(let (($e590 (bvand (bvnot $e434) (bvnot $e589))))
(let (($e591 (concat $e42 $e590)))
(let (($e592 (ite (bvult (bvnot $e6) $e591) #b1 #b0)))
(let (($e593 (ite (= (bvnot $e592) $e588) #b1 #b0)))
(let (($e594 (concat $e39 $e583)))
(let (($e595 (concat (bvnot $e39) $e583)))
(let (($e596 (ite (= #b1 $e586) $e595 $e594)))
(let (($e597 (ite (bvult $e596 (bvnot $e2)) #b1 #b0)))
(let (($e598 ((_ extract 2 0) $e485)))
(let (($e599 (ite (= $e17 $e598) #b1 #b0)))
(let (($e600 ((_ extract 3 3) $e485)))
(let (($e601 (bvand (bvnot $e600) (bvnot $e599))))
(let (($e602 (bvand (bvnot $e601) (bvnot $e597))))
(let (($e603 (bvand (bvnot $e602) (bvnot $e593))))
(let (($e604 (concat $e31 (bvnot bvlambda_5_))))
(let (($e605 (concat $e604 (bvnot bvlambda_6_))))
(let (($e606 (concat $e605 (bvnot bvlambda_7_))))
(let (($e607 (bvand (bvnot $e55) $e606)))
(let (($e608 (ite (= #b1 bvlambda_5_) (bvnot $e607) (bvnot $e296))))
(let (($e609 (ite (= (bvnot $e10) $e608) #b1 #b0)))
(let (($e610 (bvand (bvnot $e609) $e602)))
(let (($e611 (bvand (bvnot $e610) (bvnot $e603))))
(let (($e612 (ite (= $e23 $e288) #b1 #b0)))
(let (($e613 (bvand $e290 (bvnot $e612))))
(let (($e614 (concat $e35 $e479)))
(let (($e615 (concat (bvnot $e35) $e479)))
(let (($e616 (ite (= #b1 $e479) $e615 $e614)))
(let (($e617 ((_ extract 6 6) $e616)))
(let (($e618 (ite (= bvlambda_5_ $e617) #b1 #b0)))
(let (($e619 ((_ extract 5 0) $e616)))
(let (($e620 (concat bvlambda_6_ bvlambda_7_)))
(let (($e621 (bvand (bvnot $e50) (bvnot $e620))))
(let (($e622 (ite (bvult (bvnot $e621) $e619) #b1 #b0)))
(let (($e623 (bvand $e622 $e618)))
(let (($e624 (bvand bvlambda_5_ (bvnot $e617))))
(let (($e625 (bvand (bvnot $e624) (bvnot $e623))))
(let (($e626 (bvand (bvnot $e625) (bvnot $e613))))
(let (($e627 (concat (bvnot $e13) (bvnot $e477))))
(let (($e628 (concat $e13 (bvnot $e477))))
(let (($e629 (ite (= #b1 $e477) $e628 $e627)))
(let (($e630 ((_ extract 11 11) $e629)))
(let (($e631 ((_ extract 11 11) $e144)))
(let (($e632 (ite (= $e631 $e630) #b1 #b0)))
(let (($e633 ((_ extract 10 0) $e144)))
(let (($e634 ((_ extract 10 0) $e629)))
(let (($e635 (ite (bvult $e634 $e633) #b1 #b0)))
(let (($e636 (bvand $e635 $e632)))
(let (($e637 (bvand (bvnot $e631) $e630)))
(let (($e638 (bvand (bvnot $e637) (bvnot $e636))))
(let (($e639 (bvand $e638 $e626)))
(let (($e640 (bvand (bvnot $e639) (bvnot $e611))))
(let (($e641 (concat $e13 (bvnot $e248))))
(let (($e642 (ite (bvult $e641 $e109) #b1 #b0)))
(let (($e643 (bvand (bvnot $e642) $e639)))
(let (($e644 (bvand (bvnot $e643) (bvnot $e640))))
(let (($e645 (bvand (bvnot $e644) $e545)))
(let (($e646 (bvand (bvnot $e645) (bvnot $e538))))
(let (($e647 (ite (bvult $e355 (bvnot $e38)) #b1 #b0)))
(let (($e648 ((_ extract 10 0) $e279)))
(let (($e649 (bvand (bvnot $e20) (bvnot $e648))))
(let (($e650 (concat $e35 $e583)))
(let (($e651 (ite (bvult $e650 $e649) #b1 #b0)))
(let (($e652 (bvand $e282 $e651)))
(let (($e653 (bvand (bvnot $e652) (bvnot $e647))))
(let (($e654 (bvand $e652 $e647)))
(let (($e655 (bvand (bvnot $e654) (bvnot $e653))))
(let (($e656 (ite (bvult $e218 $e37) #b1 #b0)))
(let (($e657 (concat (bvnot $e31) $e109)))
(let (($e658 (bvand (bvnot $e52) $e657)))
(let (($e659 (ite (bvult (bvnot $e658) $e355) #b1 #b0)))
(let (($e660 (bvand $e659 $e656)))
(let (($e661 (bvand $e660 $e655)))
(let (($e662 (bvand (bvnot $e660) (bvnot $e655))))
(let (($e663 (bvand (bvnot $e662) (bvnot $e661))))
(let (($e664 (concat $e17 $e297)))
(let (($e665 (concat (bvnot $e17) $e297)))
(let (($e666 (ite (= #b1 $e300) $e665 $e664)))
(let (($e667 ((_ extract 3 0) $e666)))
(let (($e668 (ite (= bvlambda_10_ $e667) #b1 #b0)))
(let (($e669 ((_ extract 4 4) $e666)))
(let (($e670 (ite (= bvlambda_9_ $e669) #b1 #b0)))
(let (($e671 ((_ extract 14 5) $e666)))
(let (($e672 (ite (= bvlambda_8_ $e671) #b1 #b0)))
(let (($e673 (bvand $e672 $e670)))
(let (($e674 (bvand $e673 $e668)))
(let (($e675 (concat $e21 $e583)))
(let (($e676 (ite (bvult $e675 $e392) #b1 #b0)))
(let (($e677 (ite (= $e676 $e674) #b1 #b0)))
(let (($e678 (bvand (bvnot $e677) (bvnot $e663))))
(let (($e679 (concat $e35 (bvnot $e456))))
(let (($e680 (ite (bvult $e679 $e494) #b1 #b0)))
(let (($e681 (bvand (bvnot bvlambda_21_) $e680)))
(let (($e682 (concat $e30 $e130)))
(let (($e683 (ite (bvult $e4 $e682) #b1 #b0)))
(let (($e684 (bvand (bvnot $e683) (bvnot $e681))))
(let (($e685 (concat (bvnot $e30) bvlambda_18_)))
(let (($e686 (concat $e685 bvlambda_19_)))
(let (($e687 (ite (= #b1 bvlambda_18_) $e686 $e498)))
(let (($e688 (ite (bvult (bvnot $e10) $e687) #b1 #b0)))
(let (($e689 (concat $e30 $e144)))
(let (($e690 (concat (bvnot $e30) $e144)))
(let (($e691 (ite (= #b1 $e631) $e690 $e689)))
(let (($e692 (ite (bvult $e691 $e3) #b1 #b0)))
(let (($e693 (ite (= (bvnot $e692) $e688) #b1 #b0)))
(let (($e694 (bvand $e693 (bvnot $e684))))
(let (($e695 (concat $e30 $e98)))
(let (($e696 (concat (bvnot $e30) $e98)))
(let (($e697 (ite (= #b1 $e107) $e696 $e695)))
(let (($e698 ((_ extract 15 15) $e697)))
(let (($e699 (ite (= bvlambda_1_ $e698) #b1 #b0)))
(let (($e700 ((_ extract 14 0) $e697)))
(let (($e701 (ite (bvult $e700 $e187) #b1 #b0)))
(let (($e702 (bvand $e701 $e699)))
(let (($e703 (bvand (bvnot bvlambda_1_) $e698)))
(let (($e704 (bvand (bvnot $e703) (bvnot $e702))))
(let (($e705 (concat $e25 $e704)))
(let (($e706 (ite (bvult $e705 $e188) #b1 #b0)))
(let (($e707 (bvand (bvnot bvlambda_1_) $e706)))
(let (($e708 (bvand (bvnot $e707) (bvnot $e694))))
(let (($e709 (ite (= $e704 $e590) #b1 #b0)))
(let (($e710 (bvand (bvnot $e709) $e707)))
(let (($e711 (bvand (bvnot $e710) (bvnot $e708))))
(let (($e712 (bvand $e677 (bvnot $e711))))
(let (($e713 (bvand (bvnot $e712) (bvnot $e678))))
(let (($e714 (concat $e30 $e116)))
(let (($e715 (ite (bvult $e571 $e714) #b1 #b0)))
(let (($e716 (bvand (bvnot $e573) (bvnot $e715))))
(let (($e717 (concat $e13 $e479)))
(let (($e718 (concat (bvnot $e13) $e479)))
(let (($e719 (ite (= #b1 $e479) $e718 $e717)))
(let (($e720 (bvand (bvnot $e34) (bvnot $e279))))
(let (($e721 (ite (= $e720 $e719) #b1 #b0)))
(let (($e722 (ite (= (bvnot $e721) $e716) #b1 #b0)))
(let (($e723 (concat (bvnot $e42) (bvnot $e210))))
(let (($e724 (concat $e42 (bvnot $e210))))
(let (($e725 (ite (= #b1 $e210) $e724 $e723)))
(let (($e726 (ite (bvult $e725 (bvnot $e11)) #b1 #b0)))
(let (($e727 (ite (= $e726 $e722) #b1 #b0)))
(let (($e728 (bvand (bvnot $e727) (bvnot $e713))))
(let (($e729 (bvand (bvnot $e728) (bvnot $e646))))
(let (($e730 (ite (bvult $e720 $e163) #b1 #b0)))
(let (($e731 ((_ extract 11 0) $e288)))
(let (($e732 (ite (= #b1 $e290) $e731 $e12)))
(let (($e733 (select $e108 $e1)))
(let (($e734 (ite (= $e733 $e732) #b1 #b0)))
(let (($e735 ((_ extract 15 12) $e288)))
(let (($e736 (ite (= $e31 $e735) #b1 #b0)))
(let (($e737 (bvand $e290 (bvnot $e736))))
(let (($e738 (bvand (bvnot $e737) $e734)))
(let (($e739 (concat $e13 $e738)))
(let (($e740 (concat (bvnot $e13) $e738)))
(let (($e741 (ite (= #b1 $e738) $e740 $e739)))
(let (($e742 (ite (bvult $e194 $e741) #b1 #b0)))
(let (($e743 (bvand $e742 $e730)))
(let (($e744 (concat $e31 $e163)))
(let (($e745 (concat (bvnot $e31) $e163)))
(let (($e746 (ite (= #b1 $e166) $e745 $e744)))
(let (($e747 (ite (= $e746 $e291) #b1 #b0)))
(let (($e748 (bvand (bvnot $e747) $e743)))
(let (($e749 (bvand (bvnot $e748) $e728)))
(let (($e750 (bvand (bvnot $e749) (bvnot $e729))))
(let (($e751 (bvand (bvnot $e750) (bvnot $e515))))
(let (($e752 (ite (= $e751 $e451) #b1 #b0)))
(let (($e753 (ite (= $e12 $e279) #b1 #b0)))
(let (($e754 (ite (= (bvnot $e12) $e279) #b1 #b0)))
(let (($e755 (ite (= $e21 bvlambda_8_) #b1 #b0)))
(let (($e756 (ite (= $e31 bvlambda_10_) #b1 #b0)))
(let (($e757 (bvand (bvnot bvlambda_9_) $e756)))
(let (($e758 (bvand $e757 $e755)))
(let (($e759 (bvand (bvnot $e758) (bvnot $e754))))
(let (($e760 (bvand $e759 (bvnot $e753))))
(let (($e761 (bvand $e760 $e752)))
 (not (= $e761 #b0))))))))))))))))))))))))))))))))))))))))))))))))))))))))))))))))))))))))))))))))))))))))))))))))))))))))))))))))))))))))))))))))))))))))))))))))))))))))))))))))))))))))))))))))))))))))))))))))))))))))))))))))))))))))))))))))))))))))))))))))))))))))))))))))))))))))))))))))))))))))))))))))))))))))))))))))))))))))))))))))))))))))))))))))))))))))))))))))))))))))))))))))))))))))))))))))))))))))))))))))))))))))))))))))))))))))))))))))))))))))))))))))))))))))))))))))))))))))))))))))))))))))))))))))))))))))))))))))))))))))))))))))))))))))))))))))))))))))))))))))))))))))))))))))))))))))))))))))))))))))))))))))))))))))))))))))))))))))))))))))))))))))))))))))))))))))))))))))))))))))))))))))))))))))))))))))))))))))))))))))))))))))))))))))))
(check-sat)
(exit)
